c ren 1 -> 1
c ren 2 -> 2
c ren 3 -> 3
c ren 4 -> 4
c ren 5 -> 5
c ren 6 -> 6
c ren 7 -> 7
c ren 8 -> 8
c ren 9 -> 9
c ren 10 -> 10
c ren 11 -> 11
c ren 12 -> 12
c ren 13 -> 13
c ren 14 -> 14
c ren 15 -> 15
c ren 16 -> 16
c ren 17 -> 17
c ren 18 -> 18
c ren 19 -> 19
c ren 20 -> 20
c ren 21 -> 21
c ren 22 -> 22
c ren 23 -> 23
c ren 24 -> 24
c ren 25 -> 25
c ren 26 -> 26
c ren 27 -> 27
c ren 28 -> 28
c ren 29 -> 29
c ren 30 -> 30
c ren 31 -> 31
c ren 32 -> 32
c ren 62 -> 33
c ren 63 -> 34
c ren 66 -> 35
c ren 69 -> 36
c ren 84 -> 37
c ren 109 -> 38
c ren 120 -> 39
c ren 129 -> 40
c ren 139 -> 41
c ren 143 -> 42
c ren 153 -> 43
c ren 157 -> 44
c ren 162 -> 45
c ren 166 -> 46
c ren 168 -> 47
c ren 170 -> 48
c ren 172 -> 49
c ren 173 -> 50
c ren 174 -> 51
c ren 176 -> 52
c ren 177 -> 53
c ren 178 -> 54
c ren 179 -> 55
c ren 180 -> 56
c ren 181 -> 57
c ren 182 -> 58
c ren 183 -> 59
c ren 184 -> 60
c ren 185 -> 61
c ren 186 -> 62
c ren 187 -> 63
c ren 188 -> 64
c ren 189 -> 65
c ren 190 -> 66
c ren 191 -> 67
c ren 192 -> 68
c ren 193 -> 69
c ren 194 -> 70
c ren 195 -> 71
c ren 196 -> 72
c ren 197 -> 73
c ren 198 -> 74
c ren 312 -> 75
c ren 313 -> 76
c ren 314 -> 77
c ren 315 -> 78
c ren 316 -> 79
c ren 317 -> 80
c ren 318 -> 81
c ren 319 -> 82
c ren 320 -> 83
c ren 321 -> 84
c ren 322 -> 85
c ren 323 -> 86
c ren 324 -> 87
c ren 325 -> 88
c ren 326 -> 89
c ren 327 -> 90
c ren 328 -> 91
c ren 329 -> 92
c ren 330 -> 93
c ren 331 -> 94
p cnf 94 291
a 1 2 3 4 5 6 7 8 9 10 11 12 13 14 15 16 17 18 19 20 21 22 23 24 25 26 27 28 29 30 31 32 53 54 55 56 57 58 59 60 61 62 63 64 65 66 67 68 69 70 71 72 73 74 0
d 47 55 56 0
d 48 59 60 0
d 49 67 68 69 70 71 72 73 74 0
d 50 67 68 69 70 71 72 73 74 0
d 51 57 58 0
d 52 53 54 0
e 33 34 35 36 37 38 39 40 41 42 43 44 45 46 75 76 77 78 79 80 81 82 83 84 85 86 87 88 89 90 91 92 93 94 0
12 -25 -26 -27 43 0
10 12 -25 -27 -28 33 0
-9 -12 26 27 -33 -43 0
9 10 -26 43 0
9 10 11 -27 33 0
-10 -12 25 27 28 -43 0
10 12 -25 -27 43 0
9 10 -26 33 0
-10 -12 25 27 -33 -43 0
-9 -11 26 27 -43 0
-12 25 26 27 -33 -43 0
-10 25 26 -43 0
-11 25 26 27 -43 0
10 11 12 -25 43 0
9 10 12 -27 -28 33 0
9 12 -26 -27 43 0
9 10 11 12 43 0
-10 -11 -12 25 28 -43 0
-11 25 26 28 -33 -43 0
25 26 27 28 -33 -43 0
9 11 -26 -27 33 0
-9 25 -43 0
10 -25 -27 -28 43 0
-11 -12 25 26 28 -43 0
10 11 -25 -27 33 0
9 -26 -27 -28 43 0
-10 -11 -12 25 -33 -43 0
10 11 -25 -28 43 0
12 -25 -26 -27 -28 33 0
11 12 -25 -26 -28 33 0
-11 -12 25 26 -33 -43 0
9 -25 33 0
9 10 11 -27 43 0
9 11 -26 -28 43 0
11 -25 -26 -28 43 0
-14 15 -16 -30 31 32 40 -41 42 0
9 11 12 -26 -28 33 0
9 11 12 -26 43 0
9 10 11 12 -28 33 0
-10 -11 25 27 -43 0
-9 26 27 28 -33 -43 0
-9 -12 26 27 28 -43 0
9 10 11 -28 43 0
-10 -11 25 28 -33 -43 0
11 -25 -26 -27 33 0
-9 -10 -12 27 -33 -43 0
-9 -11 -12 26 28 -43 0
-9 -10 27 28 -33 -43 0
-9 -10 -11 27 -43 0
-9 -10 -12 27 28 -43 0
9 12 -26 -27 -28 33 0
-7 -34 0
23 -34 0
7 -23 34 0
-34 -46 0
-8 -14 15 -16 -30 31 -32 33 34 35 36 37 39 40 -41 -44 46 0
-2 -3 4 17 -18 -19 20 -39 0
-6 -35 0
22 -35 0
6 -22 35 0
-35 37 -44 -45 0
-8 24 34 35 36 37 0
-5 -36 0
21 -36 0
5 -21 36 0
-36 -46 0
-8 24 37 -44 -45 0
5 7 8 -22 -37 0
6 8 -21 -23 -37 0
6 7 -21 -24 -37 0
5 6 -34 -37 0
-21 -35 -37 0
2 -3 4 17 18 -19 20 -39 0
-36 -44 -45 0
-2 -4 17 19 20 -44 0
5 6 8 -23 -37 0
-35 -46 0
5 -35 -37 0
-2 -3 -4 17 -18 -19 -20 -39 0
-2 -3 17 19 -44 0
24 33 34 35 36 39 -42 45 0
5 6 -23 -24 -37 0
5 6 7 -24 -37 0
-6 22 36 37 0
-2 3 4 17 -18 19 20 -39 0
-14 -15 24 31 33 34 35 36 39 40 -41 45 0
41 -46 0
6 7 8 -21 -37 0
-8 -14 15 16 -30 31 32 33 34 35 36 37 39 40 -41 -44 46 0
14 15 16 24 30 31 32 33 34 35 36 37 39 40 -41 -44 46 0
-8 33 34 35 36 39 -42 45 0
-3 -4 17 18 20 -44 0
-14 -15 -16 -30 -31 32 40 -41 42 0
-2 3 -4 17 -18 19 -20 -39 0
24 34 35 36 39 43 45 0
-2 -3 -4 17 20 -44 0
8 -24 37 -44 -45 0
-34 37 -44 -45 0
3 -18 -20 -38 44 0
38 -69 -92 0
2 -18 -38 39 0
2 3 -19 -38 44 0
1 -17 -69 -92 0
3 -71 -94 0
4 -18 -19 -38 44 0
2 3 4 -38 44 0
4 -18 -19 -20 -38 39 0
-1 2 3 4 18 19 20 -39 0
-1 -3 -4 18 20 -44 0
2 -19 -20 -38 44 0
-1 17 -38 0
1 -17 39 0
-2 17 18 -44 0
2 38 51 -72 73 74 75 76 77 78 79 80 81 82 83 84 85 86 87 88 89 90 91 92 93 94 0
-2 18 38 -51 72 73 -74 75 76 77 78 79 80 81 82 83 84 85 86 87 88 89 90 91 92 93 94 0
1 38 0
-17 38 0
-18 38 51 -72 73 74 75 76 77 78 79 80 81 82 83 84 85 86 87 88 89 90 91 92 93 94 0
-1 -3 18 19 -44 0
-18 -19 -20 -38 44 0
17 -38 69 -92 0
2 4 -19 -38 44 0
-1 -2 -4 19 20 -44 0
2 -3 -4 17 18 -19 -20 -39 0
3 4 -18 -20 -38 39 0
3 4 -18 -38 44 0
-1 -2 -3 -4 20 -44 0
-1 -2 -3 19 -44 0
-19 -71 -94 0
3 -18 -19 -38 39 0
4 -70 -93 0
-1 2 3 -4 18 19 -20 -39 0
-1 -2 -3 4 -18 -19 20 -39 0
-18 -38 -51 -72 -73 -74 75 76 77 78 79 80 81 82 83 84 85 86 87 88 89 90 91 92 93 94 0
-20 -70 -93 0
-18 -38 51 -72 -73 74 75 76 77 78 79 80 81 82 83 84 85 86 87 88 89 90 91 92 93 94 0
2 -18 -38 44 0
38 -44 0
-1 -2 -3 -4 -18 -19 -20 -39 0
-1 -2 3 4 -18 19 20 -39 0
2 -38 -51 -72 -73 -74 75 76 77 78 79 80 81 82 83 84 85 86 87 88 89 90 91 92 93 94 0
-3 17 18 19 -44 0
-18 38 -51 -72 73 -74 75 76 77 78 79 80 81 82 83 84 85 86 87 88 89 90 91 92 93 94 0
-4 17 18 19 20 -44 0
2 3 -4 17 18 19 -20 -39 0
2 3 4 -20 -38 39 0
-39 -44 -45 0
-37 39 45 0
-37 -46 0
15 -31 -42 0
-14 15 16 24 -30 31 32 33 34 35 36 37 39 40 -41 -44 46 0
14 -30 -42 0
14 -15 -16 24 30 -31 -32 33 34 35 36 37 39 40 -41 -44 46 0
-8 -14 -15 -30 -31 32 33 34 35 36 37 39 40 -41 42 -44 46 0
-13 -40 0
29 -40 0
-13 29 -41 0
-14 -15 16 24 -30 -31 32 33 34 35 36 37 39 40 -41 -44 46 0
41 -42 0
-8 -14 -15 -16 -30 -31 -32 33 34 35 36 37 39 40 -41 -44 46 0
13 41 0
-29 41 0
-40 -42 0
-14 24 30 33 34 35 36 39 40 -41 45 0
14 15 37 -41 42 -43 -44 -45 0
14 15 -16 30 31 32 40 -41 42 0
-8 14 -15 30 -31 32 33 34 35 36 37 39 40 -41 42 -44 46 0
-32 -42 0
-8 -14 30 33 34 35 36 39 40 -41 45 0
10 11 12 -25 -28 33 0
9 11 -26 -27 43 0
-8 24 -46 0
2 3 -19 -38 39 0
38 -39 0
2 3 4 17 18 19 20 -39 0
14 -15 -16 30 -31 32 40 -41 42 0
-9 -10 -11 28 -33 -43 0
44 45 0
-9 -10 -11 -12 -33 -43 0
-42 -46 0
16 -42 0
-8 -15 30 31 33 34 35 36 39 40 -41 45 0
14 -30 37 -41 -43 -44 -45 0
-33 -46 0
-8 33 34 35 36 39 41 45 0
44 -46 0
14 -15 16 24 30 -31 32 33 34 35 36 37 39 40 -41 -44 46 0
-9 -11 -12 26 -33 -43 0
10 -25 -26 33 0
9 10 12 -27 43 0
-10 25 27 28 -33 -43 0
10 -25 -26 43 0
-12 25 26 27 28 -43 0
5 7 -22 -24 -37 0
11 12 -25 -26 43 0
-25 -26 -27 -28 43 0
-9 -10 26 -43 0
11 -25 -26 -27 43 0
-14 -15 -16 24 -30 -31 -32 33 34 35 36 37 39 40 -41 -44 46 0
9 -25 43 0
10 11 -25 -27 43 0
9 10 -27 -28 43 0
-9 -11 26 28 -33 -43 0
-9 -10 -11 -12 28 -43 0
33 43 0
5 6 7 8 -37 0
-7 23 37 -44 -45 0
6 -21 -23 -24 -37 0
5 -22 -34 -37 0
8 -21 -22 -23 -37 0
7 -21 -22 -24 -37 0
-21 -22 -34 -37 0
5 8 -22 -23 -37 0
24 33 34 35 36 39 41 45 0
-14 15 -16 24 -30 31 -32 33 34 35 36 37 39 40 -41 -44 46 0
-8 14 -15 -16 30 -31 -32 33 34 35 36 37 39 40 -41 -44 46 0
7 8 -21 -22 -37 0
-8 14 15 -16 30 31 -32 33 34 35 36 37 39 40 -41 -44 46 0
-8 14 15 16 30 31 32 33 34 35 36 37 39 40 -41 -44 46 0
-5 21 37 0
-8 34 35 36 39 43 45 0
6 -21 -34 -37 0
-30 -31 37 -41 42 -43 -44 -45 0
45 48 -50 -75 0
-21 -22 -23 -24 -37 0
-8 -14 -15 31 33 34 35 36 39 40 -41 45 0
13 -29 40 0
-7 23 35 36 37 0
14 15 -16 24 30 31 -32 33 34 35 36 37 39 40 -41 -44 46 0
5 -22 -23 -24 -37 0
-39 -46 0
-33 37 -43 -44 -45 0
45 48 49 -75 0
-46 -75 0
-45 -48 50 -75 0
-45 -48 -49 -75 0
14 -31 37 -41 42 -43 -44 -45 0
45 49 -50 -75 0
37 -40 -43 -44 -45 0
-15 24 30 31 33 34 35 36 39 40 -41 45 0
-2 -53 -76 0
2 53 -76 0
-18 -54 -77 0
18 54 -77 0
-3 -55 -78 0
3 55 -78 0
-19 -56 -79 0
19 56 -79 0
-4 -57 -80 0
4 57 -80 0
-20 -58 -81 0
20 58 -81 0
-5 -59 -82 0
5 59 -82 0
-21 -60 -83 0
21 60 -83 0
-6 -61 -84 0
6 61 -84 0
-22 -62 -85 0
22 62 -85 0
-7 -63 -86 0
7 63 -86 0
-23 -64 -87 0
23 64 -87 0
-13 -65 -88 0
13 65 -88 0
-29 -66 -89 0
29 66 -89 0
-47 -67 -90 0
47 67 -90 0
-52 -68 -91 0
52 68 -91 0
-1 -38 69 -92 0
1 -17 44 0
-1 2 -3 -4 18 -19 -20 -39 0
-1 -2 18 -44 0
2 3 -20 -38 44 0
-4 20 70 -93 0
3 -18 -19 -38 44 0
2 4 -19 -20 -38 39 0
-1 -2 3 -4 -18 19 -20 -39 0
-3 19 71 -94 0
-1 2 -3 4 18 -19 20 -39 0
-2 18 -38 -51 72 -73 -74 75 76 77 78 79 80 81 82 83 84 85 86 87 88 89 90 91 92 93 94 0
-1 -4 18 19 20 -44 0
2 38 -51 -72 73 -74 75 76 77 78 79 80 81 82 83 84 85 86 87 88 89 90 91 92 93 94 0
-2 18 -38 51 72 -73 74 75 76 77 78 79 80 81 82 83 84 85 86 87 88 89 90 91 92 93 94 0
-45 -49 50 -75 0
2 -38 51 -72 -73 74 75 76 77 78 79 80 81 82 83 84 85 86 87 88 89 90 91 92 93 94 0
15 -30 37 -41 42 -43 -44 -45 0
-2 18 38 51 72 73 74 75 76 77 78 79 80 81 82 83 84 85 86 87 88 89 90 91 92 93 94 0
